3 3 2
25 1 13 0 14 1 40 2 30 0 49 1 41 0 13 1 7 0 10 2 26 1 13 0 32 2 27 1 29 0 38 2 3 0 14 2 9 0 14 2 28 0 11 1 34 0 41 2 1 1 1 
25 0 10 1 34 2 1 0 6 1 19 0 21 2 5 0 11 2 38 1 24 0 14 2 17 0 38 1 27 2 17 1 42 2 29 0 36 1 4 2 31 1 4 0 34 1 44 0 5 2 23 
25 1 10 0 44 1 2 2 10 0 6 1 48 2 25 0 21 2 47 0 16 1 1 2 35 1 1 2 38 1 9 0 44 2 2 0 39 1 31 2 31 0 2 1 24 0 15 1 14 2 41 

-------------
